420 425 426 427 
480 485 486 487 
509 514 515 516 
540 545 546 547 
571 576 578 579 
599 604 606 607 
631 636 638 639 
661 666 668 669 
691 696 698 699 
721 726 728 729 
751 756 758 759 
781 786 788 789 
811 816 818 819 
841 846 848 849 
871 876 878 879 
901 906 908 909 
931 936 938 939 
961 966 968 969 
991 996 998 999 
1021 1026 1028 1029 
1051 1056 1058 1059 
1081 1086 1088 1089 
1115 1120 1122 1123 
1159 1164 1165 1166 
1219 1224 1225 1226 
1279 1284 1285 1286 
1339 1344 1345 1346 
1399 1404 1405 1406 
1459 1464 1465 1466 
